32	0

0	2	3	2
6	2	4	6
4	2	4	6
3	2	5	8
7	2	7	9
9	3	7	8	9
10	2	10	11
7	2	10	11
10	2	10	11
5	1	12
4	2	12	13
5	2	14	15
6	2	14	15
10	2	16	17
10	2	16	17
5	1	18
4	2	18	19
9	2	20	21
7	2	20	21
4	1	22
4	1	22
3	2	23	24
4	2	25	28
1	2	25	26
9	1	27
9	2	27	28
8	2	29	30
7	2	29	30
10	1	32
9	1	31
1	1	32
0	0
